/*********************************************
 * OPL 20.1.0.0 Data
 * Author: luigi
 * Creation Date: 11 nov 2021 at 21:08:20
 *********************************************/

 m = 10;
 n = 5;
 
 f = [100,10,10,10,10];
 c = [
   [2,2,3,4,2,3,4,1,8,3],
   [4,2,2,1,1,8,9,7,7,5],
   [3,8,3,5,2,7,8,4,3,6],
   [1,2,3,6,4,6,8,9,6,3],
   [4,4,3,3,7,8,9,8,7,1]
 ];
 